{"context": "Weighted Theta Functions and Embeddings with Applications to Max-Cut, Clustering and Summarization, NIPS2015\n\u672c\u8ad6\u306fLovasz theta function\u306e\u4e00\u822c\u5316\u3092\u884c\u3044\u3001\u305d\u308c\u306b\u95a2\u9023\u3057\u305f\u30b0\u30e9\u30d5\u306e\u5e7e\u4f55\u57cb\u3081\u8fbc\u307f\u3092\u63d0\u6848\u3059\u308b\u3002\nLovasz theta function\u306f\u30ce\u30a4\u30ba\u304c\u4e57\u308b\u3088\u3046\u306a\u901a\u4fe1\u306b\u304a\u3044\u3066\u3001\u4fe1\u983c\u6027\u3092\u6301\u3063\u3066\u9001\u308b\u4e8b\u306e\u3067\u304d\u308b\u60c5\u5831\u91cf\u306e\u4e0a\u9650\u3092\u793a\u3057\u3001\u7279\u306b\u3069\u306e\u4fe1\u53f7\u5024\u30da\u30a2\u304c\u30ce\u30a4\u30ba\u3067\u5224\u5225\u4e0d\u53ef\u306b\u306a\u308a\u3084\u3059\u3044\u304b\u306e\u4f9d\u5b58\u95a2\u4fc2\u3092\u793a\u3059confusion graph\u306b\u5bfe\u3057\u3066\u5b9a\u7fa9\u3055\u308c\u308b\u3002\nConfusion graph\u306f\u5404\u9802\u70b9\u306b\u95a2\u3057\u3066\u5358\u4f4d\u30d9\u30af\u30c8\u30eb\u3092\u5b9a\u7fa9\u3057\u3001\u305d\u308c\u3089\u304c\u96a3\u63a5\u3057\u3066\u3044\u306a\u3044\u5834\u5408\u306b\u76f4\u4ea4\u3059\u308b\u3088\u3046\u306b\u3057\u305f\u3001orthogonal representation\u306b\u7f6e\u304d\u63db\u3048\u53ef\u80fd\u3067\u3001\u305d\u306e\u8868\u73fe\u3092\u7528\u3044\u3066Lovasz theta function\u3092\u8a08\u7b97\u53ef\u80fd\u3067\u3042\u308b\u3002\n\u672c\u8ad6\u3067\u306f\u3053\u308c\u3092\u62e1\u5f35\u3057\u3001\u30a8\u30c3\u30b8\u3068\u30ce\u30fc\u30c9\u53cc\u65b9\u306b\u91cd\u307f\u304c\u3042\u308b\u5834\u5408\u306e\u30b0\u30e9\u30d5\u306b\u95a2\u3057\u3066\u3082theta function\u3092\u8a08\u7b97\u3067\u304d\u308b\u3088\u3046\u306b\u3057\u305f\u3002\n\u307e\u305f\u5bfe\u5fdc\u3059\u308b\u5e7e\u4f55\u57cb\u3081\u8fbc\u307f\u3092SVM\u306e\u8981\u9818\u3067\u53ef\u80fd\u306b\u3057\u305f\u3002\n\u63d0\u6848\u3055\u308c\u305f\u65b0\u305f\u306atheta function\u306f\u30b0\u30e9\u30d5\u306e\u62e1\u6563\u6027\u3092\u793a\u3057\u3001\u3053\u306e\u6307\u6a19\u3092\u7528\u3044\u308b\u4e8b\u3067\u76f8\u95a2\u30af\u30e9\u30b9\u30bf\u30ea\u30f3\u30b0\u3092\u53ef\u80fd\u306b\u3057\u305f\u3002\n\u307e\u305f\u5fdc\u7528\u3068\u3057\u3066\u91cd\u307f\u4ed8\u304dMax-Cut problem\u3092\u534a\u6b63\u5b9a\u5024\u8a08\u753b\u554f\u984c\u3068\u3057\u3066\u89e3\u304f\u4e8b\u3092\u53ef\u80fd\u306b\u3057\u305f\u3002\nNonparametric von Mises Estimators for Entropies, Divergences and Mutual Informations, NIPS2015\n\u30ce\u30f3\u30d1\u30e9\u30e1\u30c8\u30ea\u30c3\u30af\u306astatistical functionals\u306b\u95a2\u3059\u308b\u4e88\u6e2c\u5668\u3092\u89e3\u6790\u3001\u63d0\u6848\u3059\u308b\u3002\n\u63d0\u6848\u3059\u308b\u4e88\u6e2c\u5668\u306fvon Mises expansion\u3068influence function\u306b\u57fa\u3065\u3044\u3066\u6210\u308a\u7acb\u3064\u3002\nVon Mises expansion\u306f\u3001\u771f\u306e\u5206\u5e03\u3068\u305d\u3053\u304b\u3089\u306e\u30b5\u30f3\u30d7\u30eb\u3068\u3067\u8a08\u7b97\u3055\u308c\u308bstatistical function\u306e\u9593\u306e\u5fae\u5c0f\u8aa4\u5dee\u3092\u5c55\u958b\u8868\u73fe\u3057\u305f\u3082\u306e\u3067\u3042\u308b\u3002\nInfluence function\u306fvon Mises expansion\u3067\u5f97\u3089\u308c\u308b\u7d50\u679c\u306b\u95a2\u3057\u3066\u3001\u771f\u306e\u5206\u5e03\u304c\u5fae\u5c0f\u5909\u5316\u3057\u305f\u969b\u306e\u5f71\u97ff\u306e\u5927\u304d\u3055\u3092\u6e2c\u308b\u3082\u306e\u3067\u3042\u308b\u3002\n\u63d0\u6848\u3059\u308b\u4e88\u6e2c\u5668\u306f\u3001data-splitting\u3042\u308b\u3044\u306fleave-one-out\u6cd5\u306e\u3069\u3061\u3089\u306b\u304a\u3044\u3066\u3082\u65e9\u3044\u53ce\u675f\u3068\u7406\u8ad6\u7684\u306a\u7279\u6027\u3092\u5f97\u308b\u7372\u5f97\u3059\u308b\u4e8b\u304c\u3067\u304d\u305f\u3002\n\u63d0\u6848\u3059\u308b\u4e88\u6e2c\u5668\u3092\u7528\u3044\u3066\u3044\u304f\u3064\u304b\u306e\u4e00\u822c\u7684\u306a\u60c5\u5831\u8ad6\u7684\u91cf\u306e\u4e88\u6e2c\u3092\u884c\u3048\u308b\u4e8b\u3092\u793a\u3057\u305f\u3002\nSynaptic Sampling: A Bayesian Approach to Neural Network Plasticity and Rewiring, NIPS2015\n\u672c\u8ad6\u3067\u306f\u3001spiking neural network(SNN)\u306eplaticity\u3092\u89e3\u6790\u3057\u305f\u3002\nSNN\u306e\u5404\u30b7\u30ca\u30d7\u30b9\u306e\u30d1\u30e9\u30e1\u30fc\u30bf\u306b\u5bfe\u3059\u308b\u4e8b\u5f8c\u78ba\u7387\u304b\u3089\u306e\u30b5\u30f3\u30d7\u30ea\u30f3\u30b0\u306b\u3088\u308a\u3001placiticity\u3092\u5b9f\u73fe\u3057\u305d\u308c\u306b\u3088\u308b\u78ba\u7387\u63a8\u8ad6\u3092\u53ef\u80fd\u306b\u3059\u308b\u3002\n\u5f93\u6765\u306eML\u63a8\u5b9a\u306b\u57fa\u3065\u304f\u30a2\u30d7\u30ed\u30fc\u30c1\u3068\u7570\u306a\u3063\u305fBayesian\u306a\u30a2\u30d7\u30ed\u30fc\u30c1\u3068\u306a\u308b\u3002\n\n[Weighted Theta Functions and Embeddings with Applications to Max-Cut, Clustering and Summarization](http://mllab.csa.iisc.ernet.in/nips2015/weighted_lovasz.pdf), NIPS2015\n\u672c\u8ad6\u306fLovasz theta function\u306e\u4e00\u822c\u5316\u3092\u884c\u3044\u3001\u305d\u308c\u306b\u95a2\u9023\u3057\u305f\u30b0\u30e9\u30d5\u306e\u5e7e\u4f55\u57cb\u3081\u8fbc\u307f\u3092\u63d0\u6848\u3059\u308b\u3002\nLovasz theta function\u306f\u30ce\u30a4\u30ba\u304c\u4e57\u308b\u3088\u3046\u306a\u901a\u4fe1\u306b\u304a\u3044\u3066\u3001\u4fe1\u983c\u6027\u3092\u6301\u3063\u3066\u9001\u308b\u4e8b\u306e\u3067\u304d\u308b\u60c5\u5831\u91cf\u306e\u4e0a\u9650\u3092\u793a\u3057\u3001\u7279\u306b\u3069\u306e\u4fe1\u53f7\u5024\u30da\u30a2\u304c\u30ce\u30a4\u30ba\u3067\u5224\u5225\u4e0d\u53ef\u306b\u306a\u308a\u3084\u3059\u3044\u304b\u306e\u4f9d\u5b58\u95a2\u4fc2\u3092\u793a\u3059confusion graph\u306b\u5bfe\u3057\u3066\u5b9a\u7fa9\u3055\u308c\u308b\u3002\nConfusion graph\u306f\u5404\u9802\u70b9\u306b\u95a2\u3057\u3066\u5358\u4f4d\u30d9\u30af\u30c8\u30eb\u3092\u5b9a\u7fa9\u3057\u3001\u305d\u308c\u3089\u304c\u96a3\u63a5\u3057\u3066\u3044\u306a\u3044\u5834\u5408\u306b\u76f4\u4ea4\u3059\u308b\u3088\u3046\u306b\u3057\u305f\u3001orthogonal representation\u306b\u7f6e\u304d\u63db\u3048\u53ef\u80fd\u3067\u3001\u305d\u306e\u8868\u73fe\u3092\u7528\u3044\u3066Lovasz theta function\u3092\u8a08\u7b97\u53ef\u80fd\u3067\u3042\u308b\u3002\n\u672c\u8ad6\u3067\u306f\u3053\u308c\u3092\u62e1\u5f35\u3057\u3001\u30a8\u30c3\u30b8\u3068\u30ce\u30fc\u30c9\u53cc\u65b9\u306b\u91cd\u307f\u304c\u3042\u308b\u5834\u5408\u306e\u30b0\u30e9\u30d5\u306b\u95a2\u3057\u3066\u3082theta function\u3092\u8a08\u7b97\u3067\u304d\u308b\u3088\u3046\u306b\u3057\u305f\u3002\n\u307e\u305f\u5bfe\u5fdc\u3059\u308b\u5e7e\u4f55\u57cb\u3081\u8fbc\u307f\u3092SVM\u306e\u8981\u9818\u3067\u53ef\u80fd\u306b\u3057\u305f\u3002\n\u63d0\u6848\u3055\u308c\u305f\u65b0\u305f\u306atheta function\u306f\u30b0\u30e9\u30d5\u306e\u62e1\u6563\u6027\u3092\u793a\u3057\u3001\u3053\u306e\u6307\u6a19\u3092\u7528\u3044\u308b\u4e8b\u3067\u76f8\u95a2\u30af\u30e9\u30b9\u30bf\u30ea\u30f3\u30b0\u3092\u53ef\u80fd\u306b\u3057\u305f\u3002\n\u307e\u305f\u5fdc\u7528\u3068\u3057\u3066\u91cd\u307f\u4ed8\u304dMax-Cut problem\u3092\u534a\u6b63\u5b9a\u5024\u8a08\u753b\u554f\u984c\u3068\u3057\u3066\u89e3\u304f\u4e8b\u3092\u53ef\u80fd\u306b\u3057\u305f\u3002\n\n[Nonparametric von Mises Estimators for Entropies, Divergences and Mutual Informations](https://papers.nips.cc/paper/5911-nonparametric-von-mises-estimators-for-entropies-divergences-and-mutual-informations.pdf), NIPS2015\n\u30ce\u30f3\u30d1\u30e9\u30e1\u30c8\u30ea\u30c3\u30af\u306astatistical functionals\u306b\u95a2\u3059\u308b\u4e88\u6e2c\u5668\u3092\u89e3\u6790\u3001\u63d0\u6848\u3059\u308b\u3002\n\u63d0\u6848\u3059\u308b\u4e88\u6e2c\u5668\u306fvon Mises expansion\u3068influence function\u306b\u57fa\u3065\u3044\u3066\u6210\u308a\u7acb\u3064\u3002\nVon Mises expansion\u306f\u3001\u771f\u306e\u5206\u5e03\u3068\u305d\u3053\u304b\u3089\u306e\u30b5\u30f3\u30d7\u30eb\u3068\u3067\u8a08\u7b97\u3055\u308c\u308bstatistical function\u306e\u9593\u306e\u5fae\u5c0f\u8aa4\u5dee\u3092\u5c55\u958b\u8868\u73fe\u3057\u305f\u3082\u306e\u3067\u3042\u308b\u3002\nInfluence function\u306fvon Mises expansion\u3067\u5f97\u3089\u308c\u308b\u7d50\u679c\u306b\u95a2\u3057\u3066\u3001\u771f\u306e\u5206\u5e03\u304c\u5fae\u5c0f\u5909\u5316\u3057\u305f\u969b\u306e\u5f71\u97ff\u306e\u5927\u304d\u3055\u3092\u6e2c\u308b\u3082\u306e\u3067\u3042\u308b\u3002\n\u63d0\u6848\u3059\u308b\u4e88\u6e2c\u5668\u306f\u3001data-splitting\u3042\u308b\u3044\u306fleave-one-out\u6cd5\u306e\u3069\u3061\u3089\u306b\u304a\u3044\u3066\u3082\u65e9\u3044\u53ce\u675f\u3068\u7406\u8ad6\u7684\u306a\u7279\u6027\u3092\u5f97\u308b\u7372\u5f97\u3059\u308b\u4e8b\u304c\u3067\u304d\u305f\u3002\n\u63d0\u6848\u3059\u308b\u4e88\u6e2c\u5668\u3092\u7528\u3044\u3066\u3044\u304f\u3064\u304b\u306e\u4e00\u822c\u7684\u306a\u60c5\u5831\u8ad6\u7684\u91cf\u306e\u4e88\u6e2c\u3092\u884c\u3048\u308b\u4e8b\u3092\u793a\u3057\u305f\u3002\n\n[Synaptic Sampling: A Bayesian Approach to Neural Network Plasticity and Rewiring](https://papers.nips.cc/paper/5952-synaptic-sampling-a-bayesian-approach-to-neural-network-plasticity-and-rewiring.pdf), NIPS2015\n\u672c\u8ad6\u3067\u306f\u3001spiking neural network(SNN)\u306eplaticity\u3092\u89e3\u6790\u3057\u305f\u3002\nSNN\u306e\u5404\u30b7\u30ca\u30d7\u30b9\u306e\u30d1\u30e9\u30e1\u30fc\u30bf\u306b\u5bfe\u3059\u308b\u4e8b\u5f8c\u78ba\u7387\u304b\u3089\u306e\u30b5\u30f3\u30d7\u30ea\u30f3\u30b0\u306b\u3088\u308a\u3001placiticity\u3092\u5b9f\u73fe\u3057\u305d\u308c\u306b\u3088\u308b\u78ba\u7387\u63a8\u8ad6\u3092\u53ef\u80fd\u306b\u3059\u308b\u3002\n\u5f93\u6765\u306eML\u63a8\u5b9a\u306b\u57fa\u3065\u304f\u30a2\u30d7\u30ed\u30fc\u30c1\u3068\u7570\u306a\u3063\u305fBayesian\u306a\u30a2\u30d7\u30ed\u30fc\u30c1\u3068\u306a\u308b\u3002\n", "tags": ["MachineLearning", "\u8ad6\u6587\u8aad\u307f", "\u6a5f\u68b0\u5b66\u7fd2"]}